33D32945 STP File, STP Format Version 1.0

SECTION Comments
Name "cube_n12_d3_s46"
Problem "Euclidean Steiner Tree Problem"
Remark "Generated with STPGenerator. 3 dimensions."
END

SECTION Graph
Nodes 12
END

SECTION Coordinates
DDD 0 0.4696959581 0.4854901943 0.4042461926
DDD 1 0.7061174278 0.9462171723 0.1370705227
DDD 2 0.0844243104 0.5482809849 0.0280388566
DDD 3 0.8680997448 0.9082862325 0.9183224421
DDD 4 0.4284378902 0.8492767708 0.0796413781
DDD 5 0.1055795798 0.3157934068 0.1158501856
DDD 6 0.8452832088 0.8998082606 0.2806415555
DDD 7 0.9451450268 0.2765807278 0.0144947227
DDD 8 0.0034960154 0.9854360809 0.0812585769
DDD 9 0.4243695994 0.1816147301 0.3554427341
DDD 10 0.7549710999 0.6513106882 0.8409329284
DDD 11 0.1592172925 0.3574281155 0.7871501002
END
